p cnf 86 430
-43 -40 -37 0
-43 -40 -3 0
-43 -6 -3 0
-42 -39 -36 0
-42 -39 -2 0
-42 -5 -2 0
-41 -38 -35 0
-41 -38 -1 0
-41 -4 -1 0
-40 -37 -34 0
-39 -36 -33 0
-38 -35 -32 0
-37 -34 -31 0
-36 -33 -30 0
-35 -32 -29 0
-34 -31 -28 0
-33 -30 -27 0
-32 -29 -26 0
-31 -28 -25 0
-30 -27 -24 0
-29 -26 -23 0
-28 -25 -22 0
-27 -24 -21 0
-26 -23 -20 0
-25 -22 -19 0
-24 -21 -18 0
-23 -20 -17 0
-22 -19 -16 0
-21 -18 -15 0
-20 -17 -14 0
-19 -16 -13 0
-18 -15 -12 0
-17 -14 -11 0
-16 -13 -10 0
-15 -12 -9 0
-14 -11 -8 0
-13 -10 -7 0
-12 -9 -6 0
-11 -8 -5 0
-10 -7 -4 0
-9 -6 -3 0
-8 -5 -2 0
-7 -4 -1 0
1 14 0
1 20 0
1 25 0
1 31 0
1 55 0
1 74 0
2 15 0
2 21 0
2 26 0
2 32 0
2 56 0
2 75 0
3 16 0
3 22 0
3 27 0
3 33 0
3 57 0
3 76 0
4 17 0
4 23 0
4 28 0
4 34 0
4 58 0
4 77 0
5 18 0
5 24 0
5 29 0
5 35 0
5 59 0
5 78 0
6 19 0
6 25 0
6 30 0
6 36 0
6 60 0
6 79 0
7 20 0
7 26 0
7 31 0
7 37 0
7 61 0
7 80 0
8 21 0
8 27 0
8 32 0
8 38 0
8 62 0
8 81 0
9 22 0
9 28 0
9 33 0
9 39 0
9 63 0
9 82 0
10 23 0
10 29 0
10 34 0
10 40 0
10 64 0
10 83 0
11 24 0
11 30 0
11 35 0
11 41 0
11 65 0
11 84 0
12 25 0
12 31 0
12 36 0
12 42 0
12 66 0
12 85 0
13 26 0
13 32 0
13 37 0
13 43 0
13 67 0
13 86 0
14 27 0
14 33 0
14 38 0
14 44 0
14 68 0
15 28 0
15 34 0
15 39 0
15 45 0
15 69 0
16 29 0
16 35 0
16 40 0
16 46 0
16 70 0
17 30 0
17 36 0
17 41 0
17 47 0
17 71 0
18 31 0
18 37 0
18 42 0
18 48 0
18 72 0
19 32 0
19 38 0
19 43 0
19 49 0
19 73 0
20 33 0
20 39 0
20 50 0
20 74 0
21 34 0
21 40 0
21 51 0
21 75 0
22 35 0
22 41 0
22 52 0
22 76 0
23 36 0
23 42 0
23 53 0
23 77 0
24 37 0
24 43 0
24 54 0
24 78 0
25 38 0
25 55 0
25 79 0
26 39 0
26 56 0
26 80 0
27 40 0
27 57 0
27 81 0
28 41 0
28 58 0
28 82 0
29 42 0
29 59 0
29 83 0
30 43 0
30 60 0
30 84 0
31 61 0
31 85 0
32 62 0
32 86 0
33 44 0
33 63 0
34 45 0
34 64 0
35 46 0
35 65 0
36 47 0
36 66 0
37 48 0
37 67 0
38 49 0
38 68 0
39 50 0
39 69 0
40 51 0
40 70 0
41 52 0
41 71 0
42 53 0
42 72 0
43 54 0
43 73 0
44 0
44 52 0
44 52 60 68 0
44 52 60 79 0
44 52 71 79 0
44 59 0
44 63 0
44 63 71 79 0
44 68 0
44 72 0
44 79 0
45 0
45 53 0
45 53 61 69 0
45 53 61 80 0
45 53 72 80 0
45 60 0
45 64 0
45 64 72 80 0
45 69 0
45 73 0
45 80 0
46 0
46 54 0
46 54 62 70 0
46 54 62 81 0
46 54 73 81 0
46 61 0
46 65 0
46 65 73 81 0
46 70 0
46 74 0
46 81 0
47 0
47 55 0
47 55 63 71 0
47 55 63 82 0
47 55 74 82 0
47 62 0
47 66 0
47 66 74 82 0
47 71 0
47 75 0
47 82 0
48 0
48 56 0
48 56 64 72 0
48 56 64 83 0
48 56 75 83 0
48 63 0
48 67 0
48 67 75 83 0
48 72 0
48 76 0
48 83 0
49 0
49 57 0
49 57 65 73 0
49 57 65 84 0
49 57 76 84 0
49 64 0
49 68 0
49 68 76 84 0
49 73 0
49 77 0
49 84 0
50 0
50 58 0
50 58 66 74 0
50 58 66 85 0
50 58 77 85 0
50 65 0
50 69 0
50 69 77 85 0
50 74 0
50 78 0
50 85 0
51 0
51 59 0
51 59 67 75 0
51 59 67 86 0
51 59 78 86 0
51 66 0
51 70 0
51 70 78 86 0
51 75 0
51 79 0
51 86 0
52 0
52 60 0
52 60 68 76 0
52 67 0
52 71 0
52 76 0
52 80 0
53 0
53 61 0
53 61 69 77 0
53 68 0
53 72 0
53 77 0
53 81 0
54 0
54 62 0
54 62 70 78 0
54 69 0
54 73 0
54 78 0
54 82 0
55 0
55 63 0
55 63 71 79 0
55 70 0
55 74 0
55 79 0
55 83 0
56 0
56 64 0
56 64 72 80 0
56 71 0
56 75 0
56 80 0
56 84 0
57 0
57 65 0
57 65 73 81 0
57 72 0
57 76 0
57 81 0
57 85 0
58 0
58 66 0
58 66 74 82 0
58 73 0
58 77 0
58 82 0
58 86 0
59 0
59 67 0
59 67 75 83 0
59 74 0
59 78 0
59 83 0
60 0
60 68 0
60 68 76 84 0
60 75 0
60 79 0
60 84 0
61 0
61 69 0
61 69 77 85 0
61 76 0
61 80 0
61 85 0
62 0
62 70 0
62 70 78 86 0
62 77 0
62 81 0
62 86 0
63 0
63 71 0
63 78 0
63 82 0
64 0
64 72 0
64 79 0
64 83 0
65 0
65 73 0
65 80 0
65 84 0
66 0
66 74 0
66 81 0
66 85 0
67 0
67 75 0
67 82 0
67 86 0
68 0
68 76 0
68 83 0
69 0
69 77 0
69 84 0
70 0
70 78 0
70 85 0
71 0
71 79 0
71 86 0
72 0
72 80 0
73 0
73 81 0
74 0
74 82 0
75 0
75 83 0
76 0
76 84 0
77 0
77 85 0
78 0
78 86 0
79 0
80 0
81 0
82 0
83 0
84 0
85 0
86 0
